p cnf 106 271
c uncontrollable inputs:
a 1 0
c state variables:
a 3 4 5 6 7 8 0
c next state variables:
a 9 10 11 12 13 14 0
c controllable inputs
d 2 1 3 4 5 6 7 8 0
c winning region (state)
d 15 3 4 5 6 7 8 0
c winning region (next state)
d 16 9 10 11 12 13 14 0
c tseitin variables
e 17 18 19 20 21 22 23 24 25 26 27 28 29 30 31 32 33 34 35 36 37 38 39 40 41 42 43 44 45 46 47 48 49 50 51 52 53 54 55 56 57 58 59 60 61 62 63 64 65 66 67 68 69 70 71 72 73 74 75 76 77 78 79 80 81 82 83 84 85 86 87 88 89 90 91 92 93 94 95 96 97 98 99 100 101 102 103 104 105 106 0
c clauses:
-17 -13 0
-17 7 0
17 13 -7 0
-18 13 0
-18 -7 0
18 -13 7 0
-19 -17 0
-19 -18 0
19 17 18 0
-20 -14 0
-20 8 0
20 14 -8 0
-21 14 0
-21 -8 0
21 -14 8 0
-22 -20 0
-22 -21 0
22 20 21 0
-23 19 0
-23 22 0
23 -19 -22 0
-24 -9 0
-24 3 0
24 9 -3 0
-25 9 0
-25 -3 0
25 -9 3 0
-26 -24 0
-26 -25 0
26 24 25 0
-27 -10 0
-27 4 0
27 10 -4 0
-28 10 0
-28 -4 0
28 -10 4 0
-29 -27 0
-29 -28 0
29 27 28 0
-30 26 0
-30 29 0
30 -26 -29 0
-31 -11 0
-31 5 0
31 11 -5 0
-32 11 0
-32 -5 0
32 -11 5 0
-33 -31 0
-33 -32 0
33 31 32 0
-34 -12 0
-34 6 0
34 12 -6 0
-35 12 0
-35 -6 0
35 -12 6 0
-36 -34 0
-36 -35 0
36 34 35 0
-37 33 0
-37 36 0
37 -33 -36 0
-38 30 0
-38 37 0
38 -30 -37 0
-39 23 0
-39 38 0
39 -23 -38 0
-40 16 0
-40 -15 0
40 -16 15 0
-41 -16 0
-41 15 0
41 16 -15 0
-42 -40 0
-42 -41 0
42 40 41 0
-43 39 0
-43 -42 0
43 -39 42 0
-44 5 0
-44 3 0
44 -5 -3 0
-45 4 0
-45 44 0
45 -4 -44 0
-46 6 0
-46 3 0
46 -6 -3 0
-47 45 0
-47 46 0
47 -45 -46 0
-48 7 0
-48 3 0
48 -7 -3 0
-49 47 0
-49 48 0
49 -47 -48 0
-50 -47 0
-50 -48 0
50 47 48 0
51 -49 0
51 -50 0
-51 49 50 0
-52 -1 0
-52 -51 0
52 1 51 0
-53 1 0
-53 48 0
53 -1 -48 0
-54 -52 0
-54 -53 0
54 52 53 0
-55 -13 0
-55 -54 0
55 13 54 0
-56 13 0
-56 54 0
56 -13 -54 0
-57 -55 0
-57 -56 0
57 55 56 0
-58 8 0
-58 3 0
58 -8 -3 0
-59 49 0
-59 58 0
59 -49 -58 0
-60 -1 0
-60 59 0
60 1 -59 0
-61 -2 0
-61 49 0
61 2 -49 0
-62 -1 0
-62 61 0
62 1 -61 0
-63 -58 0
-63 -62 0
63 58 62 0
64 -60 0
64 -63 0
-64 60 63 0
-65 -14 0
-65 -64 0
65 14 64 0
-66 14 0
-66 64 0
66 -14 -64 0
-67 -65 0
-67 -66 0
67 65 66 0
-68 57 0
-68 67 0
68 -57 -67 0
-69 4 0
-69 3 0
69 -4 -3 0
-70 -1 0
-70 -69 0
70 1 69 0
-71 1 0
-71 69 0
71 -1 -69 0
-72 -70 0
-72 -71 0
72 70 71 0
-73 -10 0
-73 -72 0
73 10 72 0
-74 10 0
-74 72 0
74 -10 -72 0
-75 -73 0
-75 -74 0
75 73 74 0
-76 9 0
-76 75 0
76 -9 -75 0
-77 -5 0
-77 69 0
77 5 -69 0
-78 -1 0
-78 77 0
78 1 -77 0
-79 4 0
-79 -1 0
79 -4 1 0
-80 44 0
-80 -79 0
80 -44 79 0
-81 -78 0
-81 -80 0
81 78 80 0
-82 -11 0
-82 -81 0
82 11 81 0
-83 11 0
-83 81 0
83 -11 -81 0
-84 -82 0
-84 -83 0
84 82 83 0
-85 -45 0
-85 -46 0
85 45 46 0
86 -47 0
86 -85 0
-86 47 85 0
-87 -1 0
-87 -86 0
87 1 86 0
-88 1 0
-88 46 0
88 -1 -46 0
-89 -87 0
-89 -88 0
89 87 88 0
-90 -12 0
-90 -89 0
90 12 89 0
-91 12 0
-91 89 0
91 -12 -89 0
-92 -90 0
-92 -91 0
92 90 91 0
-93 84 0
-93 92 0
93 -84 -92 0
-94 76 0
-94 93 0
94 -76 -93 0
-95 68 0
-95 94 0
95 -68 -94 0
-96 95 0
-96 41 0
96 -95 -41 0
-97 15 0
-97 59 0
97 -15 -59 0
-98 -8 0
-98 -7 0
98 8 7 0
-99 -4 0
-99 -3 0
99 4 3 0
-100 -6 0
-100 -5 0
100 6 5 0
-101 99 0
-101 100 0
101 -99 -100 0
-102 98 0
-102 101 0
102 -98 -101 0
-103 -15 0
-103 102 0
103 15 -102 0
-104 -97 0
-104 -103 0
104 97 103 0
-105 -96 0
-105 104 0
105 96 -104 0
-106 -43 0
-106 105 0
106 43 -105 0
106 0
